75 
300 
10.5 14.4 0 0
11.2 14.1 0 -21
18 15.9 10 -17
18.3 13.3 10 -10
16.5 9.3 10 -11
15.4 11 10 -14
14.9 13.2 -5 -123
16.3 13.3 -5 -83
16.4 17.8 5 -15
15 17.9 -5 -64
16.1 19.6 10 -19
15.7 20.6 10 -20
13.2 20.1 -10 -127
14.3 15.3 -5 -84
14 5.1 10 -21
11.4 6.7 -15 -79
8.3 5 -15 -136
7.9 9.8 10 -25
11.4 12 5 -11
11.2 17.6 -5 -139
10.1 18.7 5 -21
11.7 20.3 10 -27
10.2 22.1 -10 -92
9.7 23.8 -10 -111
10.1 26.4 -15 -121
7.4 24 15 -12
8.2 19.9 15 -11
8.7 17.7 -10 -79
8.9 13.6 -10 -60
5.6 11.1 10 -24
4.9 18.9 10 -16
7.3 18.8 10 -26
